examples/con/graph-20-47.param
$ generated by rg.pl with seed 47
letting n be 20
$ 33 edges
letting E be {{5,7},{13,17},{3,19},{17,18},{1,12},{15,16},{6,19},{11,14},{18,20},{4,7},{16,19},{6,16},{6,14},{5,20},{6,7},{4,8},{2,12},{1,15},{10,13},{6,13},{9,16},{10,12},{4,6},{9,14},{8,9},{14,19},{13,20},{3,10},{8,12},{5,18},{12,16},{19,20},{14,20}}
